
  22   10
  10   10   10   10   10   10   10   10   10   10

   0   0   0   0   0   0   0   0   0   0   0   7 2 3 4 8 9 11 16 
   8   0   0   0   0  10   0   0   0   0   0   3 15 6 5 
   7  10   0   0   0   0   0   0   0   0   0   5 20 15 14 10 7 
   9   0  10   0   0   0   0   0   0   0   0   2 15 5 
   1   0   0   0   0   0   0  10   0   0   0   3 20 14 7 
   6   0   0   0  10   0   0   0   0   0   0   4 20 18 14 13 
   2   0  10   0   0   0   0   0   0   0   0   3 19 18 12 
   1   0   0   0   0   0   0   0  10   0   0   3 21 18 17 
   1   0   0   0   0   0   0   0  10   0   0   3 19 18 17 
   9   0  10   0   0   0   0   0   0   0   0   2 18 13 
   1   0   0   0   0  10   0   0   0   0   0   2 20 17 
   8   0  10   0   0   0   0   0   0   0   0   1 13 
  10   0   0   0   0  10   0   0   0   0   0   1 17 
  10   0   0   0   0   0  10   0   0   0   0   1 19 
   5  10   0   0   0   0   0   0   0   0   0   1 21 
   6   0   0   0   0   0   0   0   0   0  10   1 19 
   4   0  10   0   0   0   0   0   0   0   0   1 22
   2  10   0   0   0   0   0   0   0   0   0   1 22
   9   0   0   0  10   0   0   0   0   0   0   1 22
   2   0   0   0   0   0   0   0   0   0  10   1 22
   5   0   0   0   0  10   0   0   0   0   0   1 22
   0   0   0   0   0   0   0   0   0   0   0   0 
